c --- [ banner ] -------------------------------------------------------------
c 
c CaDiCaL Radically Simplified CDCL SAT Solver
c Copyright (c) 2016-2021 A. Biere, M. Fleury, N. Froleyks
c 
c Version 1.5.2 ca9bff05c11bde5eae4912f9932871d1527e61d8
c g++ (GCC) 9.3.0 -Wall -Wextra -O3 -DNDEBUG
c Sun May 1 02:23:23 EDT 2022 Linux gra-login1 3.10.0-1160.59.1.el7.x86_64 x86_64
c 
c --- [ limit ] --------------------------------------------------------------
c 
c setting conflict limit to 200000 conflicts (due to '200000')
c 
c --- [ parsing input ] ------------------------------------------------------
c 
c reading DIMACS file from '12.cubes779.adj'
c opening file to read '12.cubes779.adj'
c found 'p cnf 5320 924209' header
c parsed 924209 clauses in 8.23 seconds process time
c closing file '12.cubes779.adj'
c after reading 686668108 bytes 654.9 MB
c 
c --- [ options ] ------------------------------------------------------------
c 
c all options are set to their default value
c 
c --- [ solving ] ------------------------------------------------------------
c 
c time measured in process time since initialization
c 
c  seconds   reductions  redundant  irredundant
c          MB    restarts       trail      variables
c           level   conflicts       glue        remaining
c 
c *  8.24 693  0 0   0    0    0  0% 0 923580 3942 74%
c {  9.30 734  0 0   0    0    0  0% 0 923580 3942 74%
c i 10.23 748 40 0  17  106   61 39% 5 923580 3934 74%
c i 10.32 749 40 0  17  109   63 40% 6 923580 3933 74%
c i 11.16 754 55 0  41  207  146 45% 18 923580 3926 74%
c i 11.22 754 60 0  45  222  159 46% 20 923580 3925 74%
c i 11.38 754 55 0  51  253  177 45% 19 923580 3924 74%
c i 11.41 754 55 0  52  261  182 45% 19 923580 3923 74%
c i 11.43 754 56 0  54  265  185 45% 19 923580 3922 74%
c i 11.54 754 54 0  61  295  209 46% 20 923580 3921 74%
c - 13.19 685 54 1  63  301  213 46% 21 104959 3921 74%
c i 13.49 685 55 1  80  368  272 47% 23 104959 3920 74%
c i 13.49 685 56 1  80  371  274 47% 23 104959 3919 74%
c i 13.58 686 59 1  91  417  319 48% 25 104959 3918 74%
c i 13.68 686 58 1  96  443  342 48% 24 104959 3917 74%
c i 13.75 686 59 1  98  490  375 48% 24 104959 3916 74%
c i 13.77 686 57 1  98  522  402 49% 24 104959 3915 74%
c i 13.79 686 57 1  98  525  404 49% 24 104959 3914 74%
c i 13.79 686 57 1  98  526  404 49% 24 104959 3913 74%
c i 13.80 686 57 1  98  532  408 49% 24 104959 3912 74%
c 
c  seconds   reductions  redundant   irredundant
c          MB    restarts       trail       variables
c           level   conflicts       glue         remaining
c 
c i 13.81 686 57 1  98  538  413 49% 24 104959 3911 74%
c i 13.83 686 57 1  99  549  420 49% 25 104959 3910 73%
c i 13.97 686 57 1 109  612  470 49% 25 104959 3909 73%
c i 13.97 686 57 1 109  614  471 49% 25 104959 3908 73%
c i 13.97 686 57 1 110  615  471 49% 25 104959 3907 73%
c i 14.11 686 61 1 122  666  518 49% 27 104959 3906 73%
c i 14.20 686 63 1 128  689  540 49% 28 104959 3905 73%
c i 14.33 686 59 1 138  808  633 48% 26 104959 3904 73%
c i 14.44 686 61 1 145  870  677 48% 26 104959 3902 73%
c - 14.75 724 62 2 158  914  637 48% 28 104908 3902 73%
c } 14.86 724 64 2 181 1001  711 49% 29 104908 3902 73%
c [ 14.86 724  0 2 181 1001  711  0% 0 104908 3902 73%
c O 14.86 724  0 2 181 1002  711 29% 0 104908 3902 73%
c i 14.86 724  0 2 181 1002  711 29% 0 104908 3842 72%
c i 14.86 724  0 2 181 1003  711 29% 0 104908 3821 72%
c i 14.86 724  0 2 181 1004  711 30% 0 104908 3797 71%
c i 14.86 724  0 2 181 1005  711 30% 0 104908 3776 71%
c i 14.86 724  2 2 181 1012  713 33% 1 104908 3751 71%
c i 14.86 724  2 2 181 1013  713 33% 1 104908 3727 70%
c i 14.89 724 11 2 181 1040  728 42% 8 104908 3726 70%
c 
c  seconds   reductions  redundant   irredundant
c          MB    restarts       trail       variables
c           level   conflicts       glue         remaining
c 
c i 14.93 724 17 2 181 1146  802 53% 14 104908 3725 70%
c i 15.04 724 19 2 181 1547 1036 56% 16 104908 3724 70%
c i 15.06 724 19 2 181 1604 1068 56% 16 104908 3723 70%
c - 15.23 719 19 3 181 1832  901 56% 16 102870 3723 70%
c i 15.35 719 21 3 182 2109 1082 56% 18 102870 3722 70%
c ] 15.55 719 21 3 182 3002 1626 57% 18 102870 3722 70%
c { 15.55 719 64 3 182 3002 1626 49% 29 102870 3722 70%
c F 15.64 699 64 3 183 3003 1627  5% 29 102867 3722 70%
c - 15.75 666 61 4 188 3047 1236 29% 28 102867 3722 70%
c i 15.75 666 61 4 188 3051 1239 29% 28 102867 3721 70%
c i 15.81 666 56 4 188 3175 1320 35% 27 102867 3720 70%
c - 16.23 699 32 5 188 4566 1353 36% 17 102861 3720 70%
c i 16.31 699 31 5 191 4686 1447 36% 17 102861 3719 70%
c i 16.37 699 31 5 197 4820 1554 36% 17 102861 3718 70%
c d 16.71 699 33 5 239 5000 1704 36% 18 85209 3714 70%
c 2 16.74 699 33 5 239 5000 3169 36% 18 85150 3693 69%
c p 17.30 699 33 5 239 5000 7738 36% 18 85150 3649 69%
c d 17.39 699 33 5 239 5000 7577 36% 18 68819 3647 69%
c # 18.13 699 36 5 386 6004 8310 35% 20 68819 3647 69%
c - 18.69 666 38 6 450 6389 2424 34% 21 68819 3647 69%
c 
c  seconds   reductions  redundant   irredundant
c          MB    restarts       trail      variables
c           level   conflicts       glue        remaining
c 
c } 18.84 666 37 6 462 7003 2941 34% 20 68819 3647 69%
c [ 18.84 666 21 6 462 7003 2941 81% 18 68819 3647 69%
c - 19.12 666 22 7 463 8490 2854 62% 19 68819 3647 69%
c I 19.43 666 23 7 464 10007 3963 54% 20 68819 3647 69%
c - 19.81 666 24 8 465 10891 3295 52% 20 68819 3647 69%
c - 20.58 666 24 9 467 13591 3450 48% 20 68819 3647 69%
c ] 21.00 666 24 9 467 15004 4323 46% 20 68819 3647 69%
c { 21.00 666 37 9 467 15004 4323 34% 20 68819 3647 69%
c 2 21.03 666 37 9 467 15004 6261 34% 20 68813 3647 69%
c p 21.32 666 37 9 467 15004 11192 34% 20 68813 3647 69%
c B 21.37 666 37 9 467 15008 11196 34% 20 68813 3647 69%
c s 22.15 666 38 9 616 15745 11614 34% 22 66952 3647 69%
c v 22.72 666 38 9 616 15745 11614 34% 22 66912 3647 69%
c t 22.75 666 38 9 616 15745 11590 34% 22 66844 3647 69%
c e 22.86 666 38 9 616 15745 6278 34% 22 61920 975 18%
c s 22.92 666 38 9 616 15745 6278 34% 22 61839 975 18%
c - 23.54 668 38 10 686 16593 4323 61% 22 61839 975 18%
c - 24.73 668 34 11 811 19893 4398 61% 21 61839 975 18%
c W 25.15 668 32 11 812 21011 5153 61% 20 61839 975 18%
c - 26.06 668 33 12 984 23496 4996 61% 21 61839 975 18%
c 
c  seconds   reductions     redundant   irredundant
c          MB     restarts         trail      variables
c           level      conflicts       glue       remaining
c 
c - 27.24 668 31 13 1122 27397 5390 62% 21 61839 975 18%
c F 27.78 668 31 13 1212 28012 5897 62% 21 61839 975 18%
c p 28.58 668 31 13 1325 30004 9842 62% 21 61839 975 18%
c } 28.77 668 30 13 1328 31005 10444 62% 20 61839 975 18%
c [ 28.77 668 24 13 1328 31005 10444 176% 20 61839 975 18%
c - 28.90 668 28 14 1328 31597 5926 169% 23 61839 975 18%
c B 30.01 668 49 14 1331 36013 9355 136% 37 61839 975 18%
c - 30.06 668 49 15 1331 36098 6770 135% 37 61839 975 18%
c - 30.95 668 58 16 1334 40900 7458 117% 44 61839 975 18%
c W 32.08 668 62 16 1335 45015 10739 107% 46 61839 975 18%
c - 32.30 668 60 17 1335 46002 7996 105% 45 61839 975 18%
c p 33.31 668 55 17 1336 50005 13146 99% 42 61839 975 18%
c - 33.70 668 53 18 1336 51403 7877 97% 41 61839 975 18%
c O 34.80 668 50 18 1337 55016 10193 93% 39 61839 975 18%
c - 35.29 668 49 19 1339 57105 8263 91% 37 61839 975 18%
c ] 36.58 668 45 19 1343 63010 12570 86% 35 61839 975 18%
c { 36.58 668 30 19 1343 63010 12570 62% 20 61839 975 18%
c - 36.68 668 30 20 1367 63105 8832 62% 20 61839 975 18%
c B 37.41 668 29 20 1510 66017 10668 62% 20 61839 975 18%
c - 38.34 668 28 21 1578 69406 8649 62% 20 61839 975 18%
c 
c  seconds   reductions      redundant   irredundant
c          MB     restarts          trail      variables
c           level      conflicts        glue       remaining
c 
c p 39.87 668 26 21 1649 75005 14857 62% 19 61839 975 18%
c - 40.13 668 26 22 1674 76006 8848 62% 19 61839 975 18%
c W 40.90 668 26 22 1849 78019 10406 62% 19 61839 975 18%
c - 41.84 668 25 23 2052 82906 10094 62% 19 61839 975 18%
c - 42.87 668 24 24 2235 90107 10053 62% 18 61839 975 18%
c # 43.01 668 24 24 2245 91021 10476 62% 18 61839 975 18%
c - 45.42 668 25 25 2652 97610 10807 62% 18 61839 975 18%
c p 47.73 668 24 25 2888 105007 18731 63% 18 61839 973 18%
c s 47.90 668 24 25 2888 105007 18730 63% 18 61716 973 18%
c v 48.80 668 24 25 2888 105007 18730 63% 18 61683 973 18%
c w 48.86 668 24 25 2888 105007 18729 63% 18 61683 973 18%
c t 48.87 668 24 25 2888 105007 18718 63% 18 61681 973 18%
c e 48.98 668 24 25 2888 105007 18705 63% 18 61671 965 18%
c s 49.17 668 24 25 2888 105007 18705 63% 18 61631 965 18%
c B 49.34 668 24 25 2891 105022 18719 63% 18 61631 965 18%
c - 49.53 668 24 26 2925 105410 11065 63% 18 61631 965 18%
c } 50.49 668 23 26 3028 111002 14818 62% 18 61631 965 18%
c 1 50.49 668 23 26 3028 111002 14818 62% 18 61631 965 18%
c 
c --- [ writing output ] -----------------------------------------------------
c 
c writing simplified CNF to DIMACS file 'simp/12.cubes779.adj.simp1'
c * 50.49 668 23 26 3028 111002 14818 62% 18 61631 965 18%
c opening file to write 'simp/12.cubes779.adj.simp1'
c writing 'p cnf 5320 61631' header
c closing file 'simp/12.cubes779.adj.simp1'
c after writing 21727241 bytes 20.7 MB
c wrote 61631 clauses in 0.14 seconds process time
c 
c --- [ writing extension ] --------------------------------------------------
c 
c writing extension stack to 'simp/12.cubes779.adj.ext1'
c opening file to write 'simp/12.cubes779.adj.ext1'
c closing file 'simp/12.cubes779.adj.ext1'
c after writing 158216 bytes 0.2 MB
c wrote 7185 witnesses in 0.00 seconds process time
c 
c --- [ result ] -------------------------------------------------------------
c 
s SATISFIABLE
c 
c --- [ run-time profiling ] -------------------------------------------------
c 
c process time taken by individual solving procedures
c (percentage relative to process time for solving)
c 
c        37.19   88.03% search
c        25.53   60.44% unstable
c        10.14   24.00% stable
c         8.23   19.49% parse
c         5.06   11.97% simplify
c         2.29    5.43% probe
c         1.54    3.64% vivify
c         1.07    2.53% lucky
c         0.49    1.15% subsume
c         0.45    1.06% walk
c         0.40    0.94% elim
c         0.09    0.21% ternary
c   =================================
c        42.25   83.46% solve
c 
c last line shows process time for solving
c (percentage relative to total process time)
c 
c --- [ statistics ] ---------------------------------------------------------
c 
c chronological:             20913        18.84 %  of conflicts
c conflicts:                111002      2627.28    per second
c decisions:                242916      5749.53    per second
c eliminated:                 2680        50.38 %  of all variables
c fixed:                      1669        31.37 %  of all variables
c learned:                  108488        97.74 %  per conflict
c learned_lits:           17910089       100.00 %  learned literals
c minimized:                     0         0.00 %  learned literals
c shrunken:               10509189        58.68 %  learned literals
c minishrunken:            1448449         8.09 %  learned literals
c propagations:            9695897         0.23 M  per second
c reduced:                   61019        54.97 %  per conflict
c rephased:                     14      7928.71    interval
c restarts:                   3028        36.66    interval
c stabilizing:                   3        37.84 %  of conflicts
c substituted:                   6         0.11 %  of all variables
c subsumed:                  34979         1.65 %  of all clauses
c strengthened:              11853         0.56 %  of all clauses
c ternary:                    5767         0.58 %  of resolved
c vivified:                     94         0.00 %  of all clauses
c walked:                        3     37000.67    interval
c weakened:                   5516         3.03    average size
c 
c seconds are measured in process time for solving
c 
c --- [ resources ] ----------------------------------------------------------
c 
c total process time since initialization:        50.63    seconds
c total real time since initialization:           50.80    seconds
c maximum resident set size of process:          757.53    MB
c 
c --- [ shutting down ] ------------------------------------------------------
c 
c exit 10
WARNING! DIMACS header mismatch: wrong number of variables.
============================[ Problem Statistics ]=============================
|                                                                             |
|  Number of variables:          3176                                         |
|  Number of clauses:           61633                                         |
|  Parse time:                   0.31 s                                       |
|  Simplification time:          0.01 s                                       |
|                                                                             |
============================[ Search Statistics ]====================================================
| Conflicts |          ORIGINAL         |          LEARNT          | Num Sols |      SUBGRAPHS      |
|           |    Vars  Clauses Literals |    Limit  Clauses Lit/Cl |          | Canonical Noncanon. |
=====================================================================================================
|       106 |    3086    61639  4800114 |     2000      106    118 |        0 |        14         6 |
|       275 |    3086    61658  4800475 |     2000      275     99 |        0 |        40        25 |
|       501 |    3086    61659  4800490 |     2000      501     98 |        0 |        41        26 |
|       854 |    3086    61675  4800918 |     2000      854     94 |        0 |        65        42 |
|      1363 |    3086    61678  4800961 |     2000     1363     91 |        0 |        79        45 |
|      2234 |    3086    61790  4803468 |     3600     1234     61 |        0 |       116       157 |
|      3488 |    3086    61905  4805395 |     3600     2488     74 |        0 |       156       272 |
|      5283 |    3086    61992  4806369 |     5001     2484     54 |        0 |       190       359 |
|      7920 |    3086    62067  4807319 |     6302     2622     45 |        0 |       214       434 |
|     12013 |    3086    62316  4809893 |     7553     3566     49 |        0 |       254       683 |
|     17915 |    3069    62452  4811371 |     8777     5691     55 |        0 |       277       819 |
|     26928 |    3069    62816  4817943 |    11199     5327     39 |        0 |       415      1183 |
|     40312 |    3069    63226  4824759 |    13609     6921     42 |        0 |       506      1593 |
|     60052 |    3069    63505  4829335 |    16007    12459     59 |        0 |       636      1872 |
|     89966 |    3069    64227  4841686 |    19612    16578     59 |        0 |       897      2594 |
|    134326 |    3069    63540  4835818 |    24134    17860     60 |        0 |      1075      3165 |
|    200740 |    3069    64270  4847830 |    30410    17550     47 |        0 |      1377      3895 |
|    299880 |    3069    64884  4858772 |    36411    34691     63 |        0 |      1565      4509 |
|    448064 |    3069    65279  4866506 |    44809    42873     66 |        0 |      1754      4904 |
|    670671 |    3069    66203  4884989 |    55616    42287     58 |        0 |      2176      5828 |
|   1005900 |    3069    68907  4939058 |    68823    38723     42 |        0 |      3254      8532 |
|   1509273 |    3069    73492  5029396 |    84419    48092     41 |        0 |      4747     13117 |
|   2259382 |    3035    69715  4964561 |   102375   102157     77 |        0 |      5264     15044 |
|   3387363 |    2979    63246  4852521 |   126406    46321     63 |        0 |      6267     20751 |
=====================================================================================================
Number of solutions   : 0
Canonical subgraphs   : 7810           (15 /sec)
          order  3    : 1              (142857 /sec)
          order  4    : 1              (500000 /sec)
          order  5    : 1              (250000 /sec)
          order  6    : 1              (55556 /sec)
          order  7    : 1              (7634 /sec)
          order  8    : 2              (1353 /sec)
          order  9    : 6              (307 /sec)
          order 10    : 23             (91 /sec)
          order 11    : 84             (24 /sec)
          order 12    : 430            (11 /sec)
          order 13    : 2006           (14 /sec)
          order 14    : 4471           (16 /sec)
          order 15    : 707            (18 /sec)
          order 16    : 71             (12 /sec)
          order 17    : 3              (9 /sec)
          order 18    : 1              (4 /sec)
          order 19    : 1              (4 /sec)
          order 20    : 0              (-nan /sec)
          order 21    : 0              (-nan /sec)
Noncanonical subgraphs: 26855          (2837 /sec)
          order  3    : 0              (-nan /sec)
          order  4    : 0              (-nan /sec)
          order  5    : 0              (-nan /sec)
          order  6    : 0              (-nan /sec)
          order  7    : 0              (-nan /sec)
          order  8    : 0              (-nan /sec)
          order  9    : 0              (-nan /sec)
          order 10    : 0              (-nan /sec)
          order 11    : 0              (-nan /sec)
          order 12    : 0              (-nan /sec)
          order 13    : 7805           (8384 /sec)
          order 14    : 13485          (6193 /sec)
          order 15    : 5445           (889 /sec)
          order 16    : 113            (800 /sec)
          order 17    : 7              (75 /sec)
          order 18    : 0              (-nan /sec)
          order 19    : 0              (-nan /sec)
          order 20    : 0              (-nan /sec)
Canonicity checking   : 511.459 s
Noncanonicity checking: 9.46523 s
Total canonicity time : 520.924 s
database reductions   : 120
restarts              : 8186
conflicts             : 4529357        (3146 /sec)
decisions             : 5764007        (0.00 % random) (4004 /sec)
propagations          : 249833807      (173552 /sec)
conflict literals     : 386441951      (54.40 % deleted)
actual reward         : 0.224125
Memory used           : 195.00 MB
CPU time              : 1439.53 s

UNSATISFIABLE
